NAME: bip_60_3
TYPE: TSP
COMMENT: bip_60_3
DIMENSION: 60
EDGE_WEIGHT_TYPE: EUC_2D
NODE_COORD_SECTION
1 6 70
2 38 11
3 61 92
4 40 73
5 91 70
6 84 51
7 16 87
8 53 16
9 76 95
10 32 56
11 26 56
12 69 46
13 21 15
14 32 54
15 40 78
16 60 76
17 4 29
18 9 7
19 42 4
20 73 33
21 98 34
22 77 84
23 61 90
24 10 49
25 83 43
26 40 41
27 5 48
28 68 99
29 92 20
30 75 58
31 454 449
32 433 440
33 427 475
34 463 435
35 415 497
36 475 440
37 404 448
38 464 411
39 430 472
40 495 416
41 405 434
42 482 412
43 475 429
44 439 416
45 452 473
46 465 489
47 488 441
48 425 427
49 477 497
50 493 465
51 448 415
52 475 456
53 473 440
54 433 412
55 422 403
56 415 496
57 494 440
58 415 468
59 477 498
60 493 478
